(declare-const a Real)
(declare-const b Real)
(declare-const c Real)
(assert (= (+ a b c) 3))
(assert (not (<= (+ (* a b) (* a c) (* b c) (* (pow (+ (pow b 2) (pow c 2)) (pow (+ 1 (pow a 2)) -1)) (+ -1 (* -1 (pow a 2))))) 0)))
(check-sat)
(get-model)
(exit)